9501
[557, 556, 533, 532, 531, 530, 529, 552, 553, 554, 555, 534, 535, 559, 558, 536, 512, 537, 514, 513, 491, 490, 489, 465, 466, 442, 441, 440, 439, 438, 462, 461, 460, 483, 484, 506, 507, 508, 509, 486, 510, 487, 488, 511, 485, 463, 464, 437, 414, 415, 416, 443, 444, 467, 445, 446, 423, 447, 470, 471, 472, 449, 450, 451, 452, 475, 476, 453, 454, 455, 456, 478, 457, 458, 481, 482, 505, 528, 527, 526, 548, 549, 525, 524, 523, 522, 521, 520, 519, 518, 495, 494, 493, 492, 515, 468, 469, 473, 474, 496, 497, 498, 517, 540, 539, 516, 538, 561, 560, 562, 563, 564, 541, 542, 543, 566, 565, 544, 567, 545, 546, 569, 570, 571, 572, 573, 550, 574, 551, 503, 504, 480, 479, 477, 499, 500, 501, 502, 547, 568, 424, 401, 425, 426, 448, 427, 428, 405, 404, 381, 383, 382, 359, 336, 335, 337, 338, 339, 340, 363, 364, 341, 342, 343, 344, 318, 319, 320, 321, 297, 296, 295, 317, 316, 315, 314, 313, 290, 292, 291, 267, 266, 243, 244, 242, 219, 220, 196, 195, 194, 193, 216, 215, 214, 213, 235, 212, 236, 237, 238, 239, 240, 217, 218, 170, 171, 172, 149, 148, 147, 146, 123, 122, 100, 99, 77, 76, 75, 53, 54, 55, 56, 79, 78, 422, 32, 31, 30, 52, 51, 28, 27, 4, 26, 25, 24, 0, 23, 47, 48, 49, 71, 72, 73, 50, 95, 96, 97, 74, 98, 101, 102, 125, 124, 103, 80, 104, 105, 128, 106, 107, 108, 109, 130, 131, 132, 154, 155, 177, 156, 179, 178, 202, 201, 200, 176, 175, 174, 173, 153, 152, 151, 150, 127, 129, 126, 145, 121, 120, 143, 142, 141, 140, 117, 94, 116, 115, 138, 139, 161, 184, 162, 163, 164, 165, 166, 144, 167, 168, 169, 119, 118, 93, 92, 70, 69, 46, 1, 2, 3, 5, 6, 7, 29, 8, 9, 10, 33, 34, 12, 11, 13, 14, 15, 39, 40, 41, 18, 17, 42, 19, 20, 44, 43, 21, 22, 45, 16, 38, 37, 60, 59, 81, 82, 83, 84, 85, 86, 64, 65, 66, 67, 68, 91, 112, 90, 113, 114, 137, 183, 206, 205, 228, 204, 203, 180, 181, 182, 159, 160, 136, 135, 134, 157, 158, 110, 133, 111, 229, 252, 251, 274, 273, 250, 249, 271, 270, 269, 247, 248, 224, 223, 221, 198, 199, 197, 226, 225, 227, 246, 245, 222, 268, 241, 264, 265, 289, 288, 287, 286, 285, 262, 263, 261, 260, 259, 258, 281, 280, 303, 302, 301, 300, 299, 282, 283, 284, 305, 306, 329, 307, 330, 331, 332, 355, 356, 357, 358, 360, 361, 384, 385, 362, 365, 366, 367, 389, 388, 412, 390, 411, 410, 387, 409, 386, 408, 429, 406, 407, 430, 431, 432, 433, 434, 435, 436, 413, 459, 298, 275, 272, 294, 293, 312, 311, 333, 334, 310, 309, 308, 354, 353, 377, 378, 379, 380, 403, 402, 400, 399, 398, 397, 396, 374, 375, 376, 421, 420, 419, 417, 418, 395, 373, 350, 351, 352, 328, 304, 327, 370, 369, 392, 391, 368, 393, 371, 394, 372, 349, 325, 326, 348, 347, 346, 345, 322, 323, 324, 277, 278, 279, 256, 257, 234, 233, 255, 253, 254, 276, 230, 231, 232, 209, 210, 208, 207, 185, 186, 187, 211, 188, 189, 190, 191, 192, 89, 88, 87, 63, 62, 61, 36, 35, 58, 57]
